% Auto-generated by scripts/generate_dzn.py
% problem_type   = regex
% instance       = regex_55
% source_json    = instances_json/2_high_blowup/regex_55.json
% blowup         = 35.0
% representation = DFA

mode = 0;

var_count = 23;
Q = 595;
S = 3;
q0 = 1;
F = {407, 408, 409, 410, 411, 412, 413, 414, 415, 416, 417, 418, 419, 420, 421, 422, 423, 424, 425, 426, 427, 428, 429, 430, 431, 432, 433, 434, 435, 436, 437, 438, 439, 440, 441, 442, 443, 444, 445, 446, 447, 448, 449, 450, 451, 452, 453, 454, 455, 456, 457, 458, 459, 460, 461, 462, 463, 464, 465, 466, 467, 468, 469, 470, 471, 472, 473, 474, 475, 476, 477, 478, 479, 480, 481, 482, 483, 484, 485, 486, 487, 488, 489, 490, 491, 492, 493, 494, 495, 496, 497, 498, 499, 500, 501, 502, 503, 504, 505, 506, 507, 508, 509, 510, 511, 512, 513, 514, 515, 516, 517, 518, 519, 520, 521, 522, 523, 524, 525, 526, 527, 528, 529, 530, 531, 532, 533, 534, 535, 536, 537, 538, 539, 540, 541, 542, 543, 544, 545, 546, 547, 548, 549, 550, 551, 552, 553, 554, 555, 556, 557, 558, 559, 560, 561, 562, 563, 564, 565, 566, 567, 568, 569, 570, 571, 572, 573, 574, 575, 576, 577, 578, 579, 580, 581, 582, 583, 584, 585, 586, 587, 588, 589, 590, 591, 592, 593, 594, 595};
d_dfa = array2d(1..595, 1..3, [
  1, 1, 2,
  3, 1, 2,
  4, 1, 2,
  6, 6, 5,
  9, 8, 7,
  8, 8, 7,
  12, 11, 10,
  11, 11, 10,
  13, 11, 10,
  16, 15, 14,
  15, 15, 14,
  17, 15, 14,
  19, 19, 18,
  22, 21, 20,
  21, 21, 20,
  23, 21, 20,
  25, 25, 24,
  28, 27, 26,
  27, 27, 26,
  31, 30, 29,
  30, 30, 29,
  32, 30, 29,
  34, 34, 33,
  37, 36, 35,
  36, 36, 35,
  40, 39, 38,
  39, 39, 38,
  41, 39, 38,
  44, 43, 42,
  43, 43, 42,
  45, 43, 42,
  47, 47, 46,
  50, 49, 48,
  49, 49, 48,
  53, 52, 51,
  52, 52, 51,
  54, 52, 51,
  57, 56, 55,
  56, 56, 55,
  58, 56, 55,
  60, 60, 59,
  63, 62, 61,
  62, 62, 61,
  64, 62, 61,
  66, 66, 65,
  69, 68, 67,
  68, 68, 67,
  72, 71, 70,
  71, 71, 70,
  73, 71, 70,
  76, 75, 74,
  75, 75, 74,
  77, 75, 74,
  79, 79, 78,
  82, 81, 80,
  81, 81, 80,
  83, 81, 80,
  85, 85, 84,
  88, 87, 86,
  87, 87, 86,
  91, 90, 89,
  90, 90, 89,
  92, 90, 89,
  94, 94, 93,
  97, 96, 95,
  96, 96, 95,
  100, 99, 98,
  99, 99, 98,
  101, 99, 98,
  104, 103, 102,
  103, 103, 102,
  105, 103, 102,
  107, 107, 106,
  110, 109, 108,
  109, 109, 108,
  111, 109, 108,
  113, 113, 112,
  116, 115, 114,
  115, 115, 114,
  119, 118, 117,
  118, 118, 117,
  120, 118, 117,
  122, 122, 121,
  125, 124, 123,
  124, 124, 123,
  128, 127, 126,
  127, 127, 126,
  129, 127, 126,
  132, 131, 130,
  131, 131, 130,
  133, 131, 130,
  135, 135, 134,
  138, 137, 136,
  137, 137, 136,
  141, 140, 139,
  140, 140, 139,
  142, 140, 139,
  145, 144, 143,
  144, 144, 143,
  146, 144, 143,
  148, 148, 147,
  151, 150, 149,
  150, 150, 149,
  152, 150, 149,
  154, 154, 153,
  157, 156, 155,
  156, 156, 155,
  160, 159, 158,
  159, 159, 158,
  161, 159, 158,
  163, 163, 162,
  166, 165, 164,
  165, 165, 164,
  169, 168, 167,
  168, 168, 167,
  170, 168, 167,
  173, 172, 171,
  172, 172, 171,
  174, 172, 171,
  176, 176, 175,
  179, 178, 177,
  178, 178, 177,
  182, 181, 180,
  181, 181, 180,
  183, 181, 180,
  186, 185, 184,
  185, 185, 184,
  187, 185, 184,
  189, 189, 188,
  192, 191, 190,
  191, 191, 190,
  193, 191, 190,
  195, 195, 194,
  198, 197, 196,
  197, 197, 196,
  201, 200, 199,
  200, 200, 199,
  202, 200, 199,
  205, 204, 203,
  204, 204, 203,
  206, 204, 203,
  208, 208, 207,
  211, 210, 209,
  210, 210, 209,
  212, 210, 209,
  214, 214, 213,
  217, 216, 215,
  216, 216, 215,
  220, 219, 218,
  219, 219, 218,
  221, 219, 218,
  223, 223, 222,
  226, 225, 224,
  225, 225, 224,
  229, 228, 227,
  228, 228, 227,
  230, 228, 227,
  233, 232, 231,
  232, 232, 231,
  234, 232, 231,
  236, 236, 235,
  239, 238, 237,
  238, 238, 237,
  242, 241, 240,
  241, 241, 240,
  243, 241, 240,
  246, 245, 244,
  245, 245, 244,
  247, 245, 244,
  249, 249, 248,
  252, 251, 250,
  251, 251, 250,
  253, 251, 250,
  255, 255, 254,
  258, 257, 256,
  257, 257, 256,
  261, 260, 259,
  260, 260, 259,
  262, 260, 259,
  265, 264, 263,
  264, 264, 263,
  266, 264, 263,
  268, 268, 267,
  271, 270, 269,
  270, 270, 269,
  272, 270, 269,
  274, 274, 273,
  277, 276, 275,
  276, 276, 275,
  280, 279, 278,
  279, 279, 278,
  281, 279, 278,
  283, 283, 282,
  286, 285, 284,
  285, 285, 284,
  289, 288, 287,
  288, 288, 287,
  290, 288, 287,
  293, 292, 291,
  292, 292, 291,
  294, 292, 291,
  296, 296, 295,
  299, 298, 297,
  298, 298, 297,
  300, 298, 297,
  302, 302, 301,
  305, 304, 303,
  304, 304, 303,
  308, 307, 306,
  307, 307, 306,
  309, 307, 306,
  311, 311, 310,
  314, 313, 312,
  313, 313, 312,
  317, 316, 315,
  316, 316, 315,
  318, 316, 315,
  321, 320, 319,
  320, 320, 319,
  322, 320, 319,
  324, 324, 323,
  327, 326, 325,
  326, 326, 325,
  330, 329, 328,
  329, 329, 328,
  331, 329, 328,
  334, 333, 332,
  333, 333, 332,
  335, 333, 332,
  337, 337, 336,
  340, 339, 338,
  339, 339, 338,
  341, 339, 338,
  343, 343, 342,
  346, 345, 344,
  345, 345, 344,
  349, 348, 347,
  348, 348, 347,
  350, 348, 347,
  353, 352, 351,
  352, 352, 351,
  354, 352, 351,
  356, 356, 355,
  359, 358, 357,
  358, 358, 357,
  360, 358, 357,
  362, 362, 361,
  365, 364, 363,
  364, 364, 363,
  368, 367, 366,
  367, 367, 366,
  369, 367, 366,
  371, 371, 370,
  374, 373, 372,
  373, 373, 372,
  377, 376, 375,
  376, 376, 375,
  378, 376, 375,
  381, 380, 379,
  380, 380, 379,
  382, 380, 379,
  384, 384, 383,
  387, 386, 385,
  386, 386, 385,
  388, 386, 385,
  390, 390, 389,
  393, 392, 391,
  392, 392, 391,
  396, 395, 394,
  395, 395, 394,
  397, 395, 394,
  399, 399, 398,
  402, 401, 400,
  401, 401, 400,
  405, 404, 403,
  404, 404, 403,
  406, 404, 403,
  409, 408, 407,
  408, 408, 407,
  410, 408, 407,
  412, 412, 411,
  415, 414, 413,
  414, 414, 413,
  418, 417, 416,
  417, 417, 416,
  419, 417, 416,
  422, 421, 420,
  421, 421, 420,
  423, 421, 420,
  425, 425, 424,
  428, 427, 426,
  427, 427, 426,
  429, 427, 426,
  431, 431, 430,
  434, 433, 432,
  433, 433, 432,
  437, 436, 435,
  436, 436, 435,
  438, 436, 435,
  440, 440, 439,
  443, 442, 441,
  442, 442, 441,
  446, 445, 444,
  445, 445, 444,
  447, 445, 444,
  450, 449, 448,
  449, 449, 448,
  451, 449, 448,
  453, 453, 452,
  456, 455, 454,
  455, 455, 454,
  459, 458, 457,
  458, 458, 457,
  460, 458, 457,
  463, 462, 461,
  462, 462, 461,
  464, 462, 461,
  466, 466, 465,
  469, 468, 467,
  468, 468, 467,
  470, 468, 467,
  472, 472, 471,
  475, 474, 473,
  474, 474, 473,
  478, 477, 476,
  477, 477, 476,
  479, 477, 476,
  482, 481, 480,
  481, 481, 480,
  483, 481, 480,
  485, 485, 484,
  488, 487, 486,
  487, 487, 486,
  489, 487, 486,
  491, 491, 490,
  494, 493, 492,
  493, 493, 492,
  497, 496, 495,
  496, 496, 495,
  498, 496, 495,
  500, 500, 499,
  503, 502, 501,
  502, 502, 501,
  506, 505, 504,
  505, 505, 504,
  507, 505, 504,
  510, 509, 508,
  509, 509, 508,
  511, 509, 508,
  513, 513, 512,
  516, 515, 514,
  515, 515, 514,
  517, 515, 514,
  519, 519, 518,
  522, 521, 520,
  521, 521, 520,
  525, 524, 523,
  524, 524, 523,
  526, 524, 523,
  528, 528, 527,
  531, 530, 529,
  530, 530, 529,
  534, 533, 532,
  533, 533, 532,
  535, 533, 532,
  538, 537, 536,
  537, 537, 536,
  539, 537, 536,
  541, 541, 540,
  544, 543, 542,
  543, 543, 542,
  547, 546, 545,
  546, 546, 545,
  548, 546, 545,
  551, 550, 549,
  550, 550, 549,
  552, 550, 549,
  554, 554, 553,
  557, 556, 555,
  556, 556, 555,
  558, 556, 555,
  560, 560, 559,
  563, 562, 561,
  562, 562, 561,
  566, 565, 564,
  565, 565, 564,
  567, 565, 564,
  569, 569, 568,
  572, 571, 570,
  571, 571, 570,
  575, 574, 573,
  574, 574, 573,
  576, 574, 573,
  579, 578, 577,
  578, 578, 577,
  580, 578, 577,
  582, 582, 581,
  585, 584, 583,
  584, 584, 583,
  588, 587, 586,
  587, 587, 586,
  589, 587, 586,
  592, 591, 590,
  591, 591, 590,
  593, 591, 590,
  595, 595, 594,
  3, 1, 2,
  1, 1, 2,
  4, 1, 2,
  6, 6, 5,
  9, 8, 7,
  8, 8, 7,
  12, 11, 10,
  11, 11, 10,
  13, 11, 10,
  16, 15, 14,
  15, 15, 14,
  17, 15, 14,
  19, 19, 18,
  22, 21, 20,
  21, 21, 20,
  23, 21, 20,
  25, 25, 24,
  28, 27, 26,
  27, 27, 26,
  31, 30, 29,
  30, 30, 29,
  32, 30, 29,
  34, 34, 33,
  37, 36, 35,
  36, 36, 35,
  40, 39, 38,
  39, 39, 38,
  41, 39, 38,
  44, 43, 42,
  43, 43, 42,
  45, 43, 42,
  47, 47, 46,
  50, 49, 48,
  49, 49, 48,
  53, 52, 51,
  52, 52, 51,
  54, 52, 51,
  57, 56, 55,
  56, 56, 55,
  58, 56, 55,
  60, 60, 59,
  63, 62, 61,
  62, 62, 61,
  64, 62, 61,
  66, 66, 65,
  69, 68, 67,
  68, 68, 67,
  72, 71, 70,
  71, 71, 70,
  73, 71, 70,
  76, 75, 74,
  75, 75, 74,
  77, 75, 74,
  79, 79, 78,
  82, 81, 80,
  81, 81, 80,
  83, 81, 80,
  85, 85, 84,
  88, 87, 86,
  87, 87, 86,
  91, 90, 89,
  90, 90, 89,
  92, 90, 89,
  94, 94, 93,
  97, 96, 95,
  96, 96, 95,
  100, 99, 98,
  99, 99, 98,
  101, 99, 98,
  104, 103, 102,
  103, 103, 102,
  105, 103, 102,
  107, 107, 106,
  110, 109, 108,
  109, 109, 108,
  111, 109, 108,
  113, 113, 112,
  116, 115, 114,
  115, 115, 114,
  119, 118, 117,
  118, 118, 117,
  120, 118, 117,
  122, 122, 121,
  125, 124, 123,
  124, 124, 123,
  128, 127, 126,
  127, 127, 126,
  129, 127, 126,
  132, 131, 130,
  131, 131, 130,
  133, 131, 130,
  135, 135, 134,
  138, 137, 136,
  137, 137, 136,
  141, 140, 139,
  140, 140, 139,
  142, 140, 139,
  145, 144, 143,
  144, 144, 143,
  146, 144, 143,
  148, 148, 147,
  151, 150, 149,
  150, 150, 149,
  152, 150, 149,
  154, 154, 153,
  157, 156, 155,
  156, 156, 155,
  160, 159, 158,
  159, 159, 158,
  161, 159, 158,
  163, 163, 162,
  166, 165, 164,
  165, 165, 164,
  169, 168, 167,
  168, 168, 167,
  170, 168, 167,
  173, 172, 171,
  172, 172, 171,
  174, 172, 171,
  176, 176, 175,
  179, 178, 177,
  178, 178, 177,
  182, 181, 180,
  181, 181, 180,
  183, 181, 180,
  186, 185, 184,
  185, 185, 184,
  187, 185, 184,
  189, 189, 188,
  192, 191, 190,
  191, 191, 190,
  193, 191, 190,
  195, 195, 194,
  198, 197, 196,
  197, 197, 196,
  201, 200, 199,
  200, 200, 199,
  202, 200, 199,
  205, 204, 203,
  204, 204, 203,
  206, 204, 203,
  208, 208, 207,
  211, 210, 209,
  210, 210, 209,
  212, 210, 209,
  214, 214, 213,
  217, 216, 215,
  216, 216, 215,
  220, 219, 218,
  219, 219, 218,
  221, 219, 218,
  223, 223, 222,
  226, 225, 224,
  225, 225, 224,
  229, 228, 227,
  228, 228, 227,
  230, 228, 227,
  233, 232, 231,
  232, 232, 231,
  234, 232, 231,
  236, 236, 235,
  239, 238, 237,
  238, 238, 237,
  242, 241, 240,
  241, 241, 240,
  243, 241, 240,
  246, 245, 244,
  245, 245, 244,
  247, 245, 244,
  249, 249, 248,
  252, 251, 250,
  251, 251, 250,
  253, 251, 250,
  255, 255, 254,
  258, 257, 256,
  257, 257, 256,
  261, 260, 259,
  260, 260, 259,
  262, 260, 259,
  265, 264, 263,
  264, 264, 263,
  266, 264, 263,
  268, 268, 267,
  271, 270, 269,
  270, 270, 269,
  272, 270, 269,
  274, 274, 273,
  277, 276, 275,
  276, 276, 275
]);
d_nfa = array2d(1..595, 1..3, [
  {}, {}, {},
  {}, {}, {},
  {}, {}, {},
  {}, {}, {},
  {}, {}, {},
  {}, {}, {},
  {}, {}, {},
  {}, {}, {},
  {}, {}, {},
  {}, {}, {},
  {}, {}, {},
  {}, {}, {},
  {}, {}, {},
  {}, {}, {},
  {}, {}, {},
  {}, {}, {},
  {}, {}, {},
  {}, {}, {},
  {}, {}, {},
  {}, {}, {},
  {}, {}, {},
  {}, {}, {},
  {}, {}, {},
  {}, {}, {},
  {}, {}, {},
  {}, {}, {},
  {}, {}, {},
  {}, {}, {},
  {}, {}, {},
  {}, {}, {},
  {}, {}, {},
  {}, {}, {},
  {}, {}, {},
  {}, {}, {},
  {}, {}, {},
  {}, {}, {},
  {}, {}, {},
  {}, {}, {},
  {}, {}, {},
  {}, {}, {},
  {}, {}, {},
  {}, {}, {},
  {}, {}, {},
  {}, {}, {},
  {}, {}, {},
  {}, {}, {},
  {}, {}, {},
  {}, {}, {},
  {}, {}, {},
  {}, {}, {},
  {}, {}, {},
  {}, {}, {},
  {}, {}, {},
  {}, {}, {},
  {}, {}, {},
  {}, {}, {},
  {}, {}, {},
  {}, {}, {},
  {}, {}, {},
  {}, {}, {},
  {}, {}, {},
  {}, {}, {},
  {}, {}, {},
  {}, {}, {},
  {}, {}, {},
  {}, {}, {},
  {}, {}, {},
  {}, {}, {},
  {}, {}, {},
  {}, {}, {},
  {}, {}, {},
  {}, {}, {},
  {}, {}, {},
  {}, {}, {},
  {}, {}, {},
  {}, {}, {},
  {}, {}, {},
  {}, {}, {},
  {}, {}, {},
  {}, {}, {},
  {}, {}, {},
  {}, {}, {},
  {}, {}, {},
  {}, {}, {},
  {}, {}, {},
  {}, {}, {},
  {}, {}, {},
  {}, {}, {},
  {}, {}, {},
  {}, {}, {},
  {}, {}, {},
  {}, {}, {},
  {}, {}, {},
  {}, {}, {},
  {}, {}, {},
  {}, {}, {},
  {}, {}, {},
  {}, {}, {},
  {}, {}, {},
  {}, {}, {},
  {}, {}, {},
  {}, {}, {},
  {}, {}, {},
  {}, {}, {},
  {}, {}, {},
  {}, {}, {},
  {}, {}, {},
  {}, {}, {},
  {}, {}, {},
  {}, {}, {},
  {}, {}, {},
  {}, {}, {},
  {}, {}, {},
  {}, {}, {},
  {}, {}, {},
  {}, {}, {},
  {}, {}, {},
  {}, {}, {},
  {}, {}, {},
  {}, {}, {},
  {}, {}, {},
  {}, {}, {},
  {}, {}, {},
  {}, {}, {},
  {}, {}, {},
  {}, {}, {},
  {}, {}, {},
  {}, {}, {},
  {}, {}, {},
  {}, {}, {},
  {}, {}, {},
  {}, {}, {},
  {}, {}, {},
  {}, {}, {},
  {}, {}, {},
  {}, {}, {},
  {}, {}, {},
  {}, {}, {},
  {}, {}, {},
  {}, {}, {},
  {}, {}, {},
  {}, {}, {},
  {}, {}, {},
  {}, {}, {},
  {}, {}, {},
  {}, {}, {},
  {}, {}, {},
  {}, {}, {},
  {}, {}, {},
  {}, {}, {},
  {}, {}, {},
  {}, {}, {},
  {}, {}, {},
  {}, {}, {},
  {}, {}, {},
  {}, {}, {},
  {}, {}, {},
  {}, {}, {},
  {}, {}, {},
  {}, {}, {},
  {}, {}, {},
  {}, {}, {},
  {}, {}, {},
  {}, {}, {},
  {}, {}, {},
  {}, {}, {},
  {}, {}, {},
  {}, {}, {},
  {}, {}, {},
  {}, {}, {},
  {}, {}, {},
  {}, {}, {},
  {}, {}, {},
  {}, {}, {},
  {}, {}, {},
  {}, {}, {},
  {}, {}, {},
  {}, {}, {},
  {}, {}, {},
  {}, {}, {},
  {}, {}, {},
  {}, {}, {},
  {}, {}, {},
  {}, {}, {},
  {}, {}, {},
  {}, {}, {},
  {}, {}, {},
  {}, {}, {},
  {}, {}, {},
  {}, {}, {},
  {}, {}, {},
  {}, {}, {},
  {}, {}, {},
  {}, {}, {},
  {}, {}, {},
  {}, {}, {},
  {}, {}, {},
  {}, {}, {},
  {}, {}, {},
  {}, {}, {},
  {}, {}, {},
  {}, {}, {},
  {}, {}, {},
  {}, {}, {},
  {}, {}, {},
  {}, {}, {},
  {}, {}, {},
  {}, {}, {},
  {}, {}, {},
  {}, {}, {},
  {}, {}, {},
  {}, {}, {},
  {}, {}, {},
  {}, {}, {},
  {}, {}, {},
  {}, {}, {},
  {}, {}, {},
  {}, {}, {},
  {}, {}, {},
  {}, {}, {},
  {}, {}, {},
  {}, {}, {},
  {}, {}, {},
  {}, {}, {},
  {}, {}, {},
  {}, {}, {},
  {}, {}, {},
  {}, {}, {},
  {}, {}, {},
  {}, {}, {},
  {}, {}, {},
  {}, {}, {},
  {}, {}, {},
  {}, {}, {},
  {}, {}, {},
  {}, {}, {},
  {}, {}, {},
  {}, {}, {},
  {}, {}, {},
  {}, {}, {},
  {}, {}, {},
  {}, {}, {},
  {}, {}, {},
  {}, {}, {},
  {}, {}, {},
  {}, {}, {},
  {}, {}, {},
  {}, {}, {},
  {}, {}, {},
  {}, {}, {},
  {}, {}, {},
  {}, {}, {},
  {}, {}, {},
  {}, {}, {},
  {}, {}, {},
  {}, {}, {},
  {}, {}, {},
  {}, {}, {},
  {}, {}, {},
  {}, {}, {},
  {}, {}, {},
  {}, {}, {},
  {}, {}, {},
  {}, {}, {},
  {}, {}, {},
  {}, {}, {},
  {}, {}, {},
  {}, {}, {},
  {}, {}, {},
  {}, {}, {},
  {}, {}, {},
  {}, {}, {},
  {}, {}, {},
  {}, {}, {},
  {}, {}, {},
  {}, {}, {},
  {}, {}, {},
  {}, {}, {},
  {}, {}, {},
  {}, {}, {},
  {}, {}, {},
  {}, {}, {},
  {}, {}, {},
  {}, {}, {},
  {}, {}, {},
  {}, {}, {},
  {}, {}, {},
  {}, {}, {},
  {}, {}, {},
  {}, {}, {},
  {}, {}, {},
  {}, {}, {},
  {}, {}, {},
  {}, {}, {},
  {}, {}, {},
  {}, {}, {},
  {}, {}, {},
  {}, {}, {},
  {}, {}, {},
  {}, {}, {},
  {}, {}, {},
  {}, {}, {},
  {}, {}, {},
  {}, {}, {},
  {}, {}, {},
  {}, {}, {},
  {}, {}, {},
  {}, {}, {},
  {}, {}, {},
  {}, {}, {},
  {}, {}, {},
  {}, {}, {},
  {}, {}, {},
  {}, {}, {},
  {}, {}, {},
  {}, {}, {},
  {}, {}, {},
  {}, {}, {},
  {}, {}, {},
  {}, {}, {},
  {}, {}, {},
  {}, {}, {},
  {}, {}, {},
  {}, {}, {},
  {}, {}, {},
  {}, {}, {},
  {}, {}, {},
  {}, {}, {},
  {}, {}, {},
  {}, {}, {},
  {}, {}, {},
  {}, {}, {},
  {}, {}, {},
  {}, {}, {},
  {}, {}, {},
  {}, {}, {},
  {}, {}, {},
  {}, {}, {},
  {}, {}, {},
  {}, {}, {},
  {}, {}, {},
  {}, {}, {},
  {}, {}, {},
  {}, {}, {},
  {}, {}, {},
  {}, {}, {},
  {}, {}, {},
  {}, {}, {},
  {}, {}, {},
  {}, {}, {},
  {}, {}, {},
  {}, {}, {},
  {}, {}, {},
  {}, {}, {},
  {}, {}, {},
  {}, {}, {},
  {}, {}, {},
  {}, {}, {},
  {}, {}, {},
  {}, {}, {},
  {}, {}, {},
  {}, {}, {},
  {}, {}, {},
  {}, {}, {},
  {}, {}, {},
  {}, {}, {},
  {}, {}, {},
  {}, {}, {},
  {}, {}, {},
  {}, {}, {},
  {}, {}, {},
  {}, {}, {},
  {}, {}, {},
  {}, {}, {},
  {}, {}, {},
  {}, {}, {},
  {}, {}, {},
  {}, {}, {},
  {}, {}, {},
  {}, {}, {},
  {}, {}, {},
  {}, {}, {},
  {}, {}, {},
  {}, {}, {},
  {}, {}, {},
  {}, {}, {},
  {}, {}, {},
  {}, {}, {},
  {}, {}, {},
  {}, {}, {},
  {}, {}, {},
  {}, {}, {},
  {}, {}, {},
  {}, {}, {},
  {}, {}, {},
  {}, {}, {},
  {}, {}, {},
  {}, {}, {},
  {}, {}, {},
  {}, {}, {},
  {}, {}, {},
  {}, {}, {},
  {}, {}, {},
  {}, {}, {},
  {}, {}, {},
  {}, {}, {},
  {}, {}, {},
  {}, {}, {},
  {}, {}, {},
  {}, {}, {},
  {}, {}, {},
  {}, {}, {},
  {}, {}, {},
  {}, {}, {},
  {}, {}, {},
  {}, {}, {},
  {}, {}, {},
  {}, {}, {},
  {}, {}, {},
  {}, {}, {},
  {}, {}, {},
  {}, {}, {},
  {}, {}, {},
  {}, {}, {},
  {}, {}, {},
  {}, {}, {},
  {}, {}, {},
  {}, {}, {},
  {}, {}, {},
  {}, {}, {},
  {}, {}, {},
  {}, {}, {},
  {}, {}, {},
  {}, {}, {},
  {}, {}, {},
  {}, {}, {},
  {}, {}, {},
  {}, {}, {},
  {}, {}, {},
  {}, {}, {},
  {}, {}, {},
  {}, {}, {},
  {}, {}, {},
  {}, {}, {},
  {}, {}, {},
  {}, {}, {},
  {}, {}, {},
  {}, {}, {},
  {}, {}, {},
  {}, {}, {},
  {}, {}, {},
  {}, {}, {},
  {}, {}, {},
  {}, {}, {},
  {}, {}, {},
  {}, {}, {},
  {}, {}, {},
  {}, {}, {},
  {}, {}, {},
  {}, {}, {},
  {}, {}, {},
  {}, {}, {},
  {}, {}, {},
  {}, {}, {},
  {}, {}, {},
  {}, {}, {},
  {}, {}, {},
  {}, {}, {},
  {}, {}, {},
  {}, {}, {},
  {}, {}, {},
  {}, {}, {},
  {}, {}, {},
  {}, {}, {},
  {}, {}, {},
  {}, {}, {},
  {}, {}, {},
  {}, {}, {},
  {}, {}, {},
  {}, {}, {},
  {}, {}, {},
  {}, {}, {},
  {}, {}, {},
  {}, {}, {},
  {}, {}, {},
  {}, {}, {},
  {}, {}, {},
  {}, {}, {},
  {}, {}, {},
  {}, {}, {},
  {}, {}, {},
  {}, {}, {},
  {}, {}, {},
  {}, {}, {},
  {}, {}, {},
  {}, {}, {},
  {}, {}, {},
  {}, {}, {},
  {}, {}, {},
  {}, {}, {},
  {}, {}, {},
  {}, {}, {},
  {}, {}, {},
  {}, {}, {},
  {}, {}, {},
  {}, {}, {},
  {}, {}, {},
  {}, {}, {},
  {}, {}, {},
  {}, {}, {},
  {}, {}, {},
  {}, {}, {},
  {}, {}, {},
  {}, {}, {},
  {}, {}, {},
  {}, {}, {},
  {}, {}, {},
  {}, {}, {},
  {}, {}, {},
  {}, {}, {},
  {}, {}, {},
  {}, {}, {},
  {}, {}, {},
  {}, {}, {},
  {}, {}, {},
  {}, {}, {},
  {}, {}, {},
  {}, {}, {},
  {}, {}, {},
  {}, {}, {},
  {}, {}, {},
  {}, {}, {},
  {}, {}, {},
  {}, {}, {},
  {}, {}, {},
  {}, {}, {},
  {}, {}, {},
  {}, {}, {},
  {}, {}, {},
  {}, {}, {},
  {}, {}, {},
  {}, {}, {},
  {}, {}, {},
  {}, {}, {},
  {}, {}, {},
  {}, {}, {},
  {}, {}, {},
  {}, {}, {},
  {}, {}, {},
  {}, {}, {},
  {}, {}, {},
  {}, {}, {},
  {}, {}, {},
  {}, {}, {},
  {}, {}, {},
  {}, {}, {},
  {}, {}, {},
  {}, {}, {},
  {}, {}, {},
  {}, {}, {},
  {}, {}, {},
  {}, {}, {},
  {}, {}, {},
  {}, {}, {},
  {}, {}, {},
  {}, {}, {},
  {}, {}, {},
  {}, {}, {},
  {}, {}, {},
  {}, {}, {},
  {}, {}, {},
  {}, {}, {},
  {}, {}, {},
  {}, {}, {},
  {}, {}, {},
  {}, {}, {},
  {}, {}, {},
  {}, {}, {},
  {}, {}, {},
  {}, {}, {},
  {}, {}, {},
  {}, {}, {},
  {}, {}, {},
  {}, {}, {},
  {}, {}, {},
  {}, {}, {},
  {}, {}, {},
  {}, {}, {},
  {}, {}, {},
  {}, {}, {},
  {}, {}, {},
  {}, {}, {},
  {}, {}, {},
  {}, {}, {},
  {}, {}, {}
]);
